Route #1: 1 22 20 35 36 3 28 31 26 8 27
Route #2: 4 17 44 42 19 40 41 13 25 14
Route #3: 12 37 15 45 33 39 30 10 49 5
Route #4: 32 2 16 29 21 34 50 9 38 11 46
Route #5: 6 48 23 7 43 24 18 47
Cost 531